100
1000
200
200
200
199
199
199
198
198
198
197
196
195
195
194
193
193
193
193
193
192
192
192
191
190
190
190
190
190
188
187
186
186
186
186
185
185
185
185
184
184
183
182
182
181
180
180
180
175
175
175
175
174
174
173
173
173
173
172
172
172
171
169
168
168
168
168
167
166
166
166
165
164
163
163
163
163
162
161
159
159
159
159
158
158
157
157
157
157
156
156
155
154
154
153
152
152
151
151
150
150
